SCIP Status        : problem creation / modification
Total Time         :       0.06
  reading          :       0.06
Original Problem   :
  Problem name     : main4.zpl
  Variables        : 5460 (5460 binary, 0 integer, 0 implicit integer, 0 continuous)
  Constraints      : 0 initial, 5550 maximal
  Objective        : minimize, 5460 non-zeros (abs.min = 0.00102, abs.max = 5700)
